c description: Perfect Matching Principle on 
c generator: CNFgen (0.9.0)
c copyright: (C) 2012-2020 Massimo Lauria <massimo.lauria@uniroma1.it>
c url: https://massimolauria.net/cnfgen
c
p cnf 160 1294
-1 -2 0
-1 -3 0
-1 -4 0
-1 -5 0
-1 -6 0
-1 -7 0
-1 -8 0
-1 -9 0
-1 -10 0
-1 -11 0
-1 -12 0
-2 -3 0
-2 -4 0
-2 -5 0
-2 -6 0
-2 -7 0
-2 -8 0
-2 -9 0
-2 -10 0
-2 -11 0
-2 -12 0
-3 -4 0
-3 -5 0
-3 -6 0
-3 -7 0
-3 -8 0
-3 -9 0
-3 -10 0
-3 -11 0
-3 -12 0
-4 -5 0
-4 -6 0
-4 -7 0
-4 -8 0
-4 -9 0
-4 -10 0
-4 -11 0
-4 -12 0
-5 -6 0
-5 -7 0
-5 -8 0
-5 -9 0
-5 -10 0
-5 -11 0
-5 -12 0
-6 -7 0
-6 -8 0
-6 -9 0
-6 -10 0
-6 -11 0
-6 -12 0
-7 -8 0
-7 -9 0
-7 -10 0
-7 -11 0
-7 -12 0
-8 -9 0
-8 -10 0
-8 -11 0
-8 -12 0
-9 -10 0
-9 -11 0
-9 -12 0
-10 -11 0
-10 -12 0
-11 -12 0
1 2 3 4 5 6 7 8 9 10 11 12 0
-13 -14 0
-13 -15 0
-13 -16 0
-13 -17 0
-13 -18 0
-13 -19 0
-13 -20 0
-13 -21 0
-13 -22 0
-13 -23 0
-14 -15 0
-14 -16 0
-14 -17 0
-14 -18 0
-14 -19 0
-14 -20 0
-14 -21 0
-14 -22 0
-14 -23 0
-15 -16 0
-15 -17 0
-15 -18 0
-15 -19 0
-15 -20 0
-15 -21 0
-15 -22 0
-15 -23 0
-16 -17 0
-16 -18 0
-16 -19 0
-16 -20 0
-16 -21 0
-16 -22 0
-16 -23 0
-17 -18 0
-17 -19 0
-17 -20 0
-17 -21 0
-17 -22 0
-17 -23 0
-18 -19 0
-18 -20 0
-18 -21 0
-18 -22 0
-18 -23 0
-19 -20 0
-19 -21 0
-19 -22 0
-19 -23 0
-20 -21 0
-20 -22 0
-20 -23 0
-21 -22 0
-21 -23 0
-22 -23 0
13 14 15 16 17 18 19 20 21 22 23 0
-1 -24 0
-1 -25 0
-1 -26 0
-1 -27 0
-1 -28 0
-1 -29 0
-1 -30 0
-24 -25 0
-24 -26 0
-24 -27 0
-24 -28 0
-24 -29 0
-24 -30 0
-25 -26 0
-25 -27 0
-25 -28 0
-25 -29 0
-25 -30 0
-26 -27 0
-26 -28 0
-26 -29 0
-26 -30 0
-27 -28 0
-27 -29 0
-27 -30 0
-28 -29 0
-28 -30 0
-29 -30 0
1 24 25 26 27 28 29 30 0
-13 -31 0
-13 -32 0
-13 -33 0
-13 -34 0
-13 -35 0
-31 -32 0
-31 -33 0
-31 -34 0
-31 -35 0
-32 -33 0
-32 -34 0
-32 -35 0
-33 -34 0
-33 -35 0
-34 -35 0
13 31 32 33 34 35 0
-24 -36 0
-24 -37 0
-24 -38 0
-24 -39 0
-24 -40 0
-24 -41 0
-24 -42 0
-24 -43 0
-24 -44 0
-36 -37 0
-36 -38 0
-36 -39 0
-36 -40 0
-36 -41 0
-36 -42 0
-36 -43 0
-36 -44 0
-37 -38 0
-37 -39 0
-37 -40 0
-37 -41 0
-37 -42 0
-37 -43 0
-37 -44 0
-38 -39 0
-38 -40 0
-38 -41 0
-38 -42 0
-38 -43 0
-38 -44 0
-39 -40 0
-39 -41 0
-39 -42 0
-39 -43 0
-39 -44 0
-40 -41 0
-40 -42 0
-40 -43 0
-40 -44 0
-41 -42 0
-41 -43 0
-41 -44 0
-42 -43 0
-42 -44 0
-43 -44 0
24 36 37 38 39 40 41 42 43 44 0
-45 -46 0
-45 -47 0
-45 -48 0
-45 -49 0
-45 -50 0
-45 -51 0
-46 -47 0
-46 -48 0
-46 -49 0
-46 -50 0
-46 -51 0
-47 -48 0
-47 -49 0
-47 -50 0
-47 -51 0
-48 -49 0
-48 -50 0
-48 -51 0
-49 -50 0
-49 -51 0
-50 -51 0
45 46 47 48 49 50 51 0
-36 -52 0
-36 -53 0
-36 -54 0
-36 -55 0
-36 -56 0
-36 -57 0
-52 -53 0
-52 -54 0
-52 -55 0
-52 -56 0
-52 -57 0
-53 -54 0
-53 -55 0
-53 -56 0
-53 -57 0
-54 -55 0
-54 -56 0
-54 -57 0
-55 -56 0
-55 -57 0
-56 -57 0
36 52 53 54 55 56 57 0
-52 -58 0
-52 -59 0
-52 -60 0
-52 -61 0
-52 -62 0
-52 -63 0
-58 -59 0
-58 -60 0
-58 -61 0
-58 -62 0
-58 -63 0
-59 -60 0
-59 -61 0
-59 -62 0
-59 -63 0
-60 -61 0
-60 -62 0
-60 -63 0
-61 -62 0
-61 -63 0
-62 -63 0
52 58 59 60 61 62 63 0
-2 -14 0
-2 -25 0
-2 -64 0
-2 -65 0
-2 -66 0
-2 -67 0
-2 -68 0
-2 -69 0
-2 -70 0
-2 -71 0
-2 -72 0
-14 -25 0
-14 -64 0
-14 -65 0
-14 -66 0
-14 -67 0
-14 -68 0
-14 -69 0
-14 -70 0
-14 -71 0
-14 -72 0
-25 -64 0
-25 -65 0
-25 -66 0
-25 -67 0
-25 -68 0
-25 -69 0
-25 -70 0
-25 -71 0
-25 -72 0
-64 -65 0
-64 -66 0
-64 -67 0
-64 -68 0
-64 -69 0
-64 -70 0
-64 -71 0
-64 -72 0
-65 -66 0
-65 -67 0
-65 -68 0
-65 -69 0
-65 -70 0
-65 -71 0
-65 -72 0
-66 -67 0
-66 -68 0
-66 -69 0
-66 -70 0
-66 -71 0
-66 -72 0
-67 -68 0
-67 -69 0
-67 -70 0
-67 -71 0
-67 -72 0
-68 -69 0
-68 -70 0
-68 -71 0
-68 -72 0
-69 -70 0
-69 -71 0
-69 -72 0
-70 -71 0
-70 -72 0
-71 -72 0
2 14 25 64 65 66 67 68 69 70 71 72 0
-15 -58 0
-15 -73 0
-15 -74 0
-15 -75 0
-58 -73 0
-58 -74 0
-58 -75 0
-73 -74 0
-73 -75 0
-74 -75 0
15 58 73 74 75 0
-3 -64 0
3 64 0
-4 -16 0
-4 -76 0
-4 -77 0
-4 -78 0
-16 -76 0
-16 -77 0
-16 -78 0
-76 -77 0
-76 -78 0
-77 -78 0
4 16 76 77 78 0
-79 -80 0
-79 -81 0
-79 -82 0
-79 -83 0
-79 -84 0
-79 -85 0
-79 -86 0
-80 -81 0
-80 -82 0
-80 -83 0
-80 -84 0
-80 -85 0
-80 -86 0
-81 -82 0
-81 -83 0
-81 -84 0
-81 -85 0
-81 -86 0
-82 -83 0
-82 -84 0
-82 -85 0
-82 -86 0
-83 -84 0
-83 -85 0
-83 -86 0
-84 -85 0
-84 -86 0
-85 -86 0
79 80 81 82 83 84 85 86 0
-5 -26 0
-5 -87 0
-5 -88 0
-5 -89 0
-5 -90 0
-5 -91 0
-5 -92 0
-5 -93 0
-26 -87 0
-26 -88 0
-26 -89 0
-26 -90 0
-26 -91 0
-26 -92 0
-26 -93 0
-87 -88 0
-87 -89 0
-87 -90 0
-87 -91 0
-87 -92 0
-87 -93 0
-88 -89 0
-88 -90 0
-88 -91 0
-88 -92 0
-88 -93 0
-89 -90 0
-89 -91 0
-89 -92 0
-89 -93 0
-90 -91 0
-90 -92 0
-90 -93 0
-91 -92 0
-91 -93 0
-92 -93 0
5 26 87 88 89 90 91 92 93 0
-17 -45 0
-17 -53 0
-17 -59 0
-17 -65 0
-17 -79 0
-17 -94 0
-17 -95 0
-17 -96 0
-17 -97 0
-17 -98 0
-45 -53 0
-45 -59 0
-45 -65 0
-45 -79 0
-45 -94 0
-45 -95 0
-45 -96 0
-45 -97 0
-45 -98 0
-53 -59 0
-53 -65 0
-53 -79 0
-53 -94 0
-53 -95 0
-53 -96 0
-53 -97 0
-53 -98 0
-59 -65 0
-59 -79 0
-59 -94 0
-59 -95 0
-59 -96 0
-59 -97 0
-59 -98 0
-65 -79 0
-65 -94 0
-65 -95 0
-65 -96 0
-65 -97 0
-65 -98 0
-79 -94 0
-79 -95 0
-79 -96 0
-79 -97 0
-79 -98 0
-94 -95 0
-94 -96 0
-94 -97 0
-94 -98 0
-95 -96 0
-95 -97 0
-95 -98 0
-96 -97 0
-96 -98 0
-97 -98 0
17 45 53 59 65 79 94 95 96 97 98 0
-37 -54 0
-37 -66 0
-37 -99 0
-37 -100 0
-37 -101 0
-37 -102 0
-37 -103 0
-37 -104 0
-54 -66 0
-54 -99 0
-54 -100 0
-54 -101 0
-54 -102 0
-54 -103 0
-54 -104 0
-66 -99 0
-66 -100 0
-66 -101 0
-66 -102 0
-66 -103 0
-66 -104 0
-99 -100 0
-99 -101 0
-99 -102 0
-99 -103 0
-99 -104 0
-100 -101 0
-100 -102 0
-100 -103 0
-100 -104 0
-101 -102 0
-101 -103 0
-101 -104 0
-102 -103 0
-102 -104 0
-103 -104 0
37 54 66 99 100 101 102 103 104 0
-6 -38 0
-6 -105 0
-6 -106 0
-6 -107 0
-6 -108 0
-38 -105 0
-38 -106 0
-38 -107 0
-38 -108 0
-105 -106 0
-105 -107 0
-105 -108 0
-106 -107 0
-106 -108 0
-107 -108 0
6 38 105 106 107 108 0
-99 -109 0
-99 -110 0
-99 -111 0
-99 -112 0
-99 -113 0
-109 -110 0
-109 -111 0
-109 -112 0
-109 -113 0
-110 -111 0
-110 -112 0
-110 -113 0
-111 -112 0
-111 -113 0
-112 -113 0
99 109 110 111 112 113 0
-18 -46 0
-18 -55 0
-18 -73 0
-18 -87 0
-18 -100 0
-18 -105 0
-18 -114 0
-18 -115 0
-18 -116 0
-18 -117 0
-18 -118 0
-18 -119 0
-18 -120 0
-18 -121 0
-18 -122 0
-46 -55 0
-46 -73 0
-46 -87 0
-46 -100 0
-46 -105 0
-46 -114 0
-46 -115 0
-46 -116 0
-46 -117 0
-46 -118 0
-46 -119 0
-46 -120 0
-46 -121 0
-46 -122 0
-55 -73 0
-55 -87 0
-55 -100 0
-55 -105 0
-55 -114 0
-55 -115 0
-55 -116 0
-55 -117 0
-55 -118 0
-55 -119 0
-55 -120 0
-55 -121 0
-55 -122 0
-73 -87 0
-73 -100 0
-73 -105 0
-73 -114 0
-73 -115 0
-73 -116 0
-73 -117 0
-73 -118 0
-73 -119 0
-73 -120 0
-73 -121 0
-73 -122 0
-87 -100 0
-87 -105 0
-87 -114 0
-87 -115 0
-87 -116 0
-87 -117 0
-87 -118 0
-87 -119 0
-87 -120 0
-87 -121 0
-87 -122 0
-100 -105 0
-100 -114 0
-100 -115 0
-100 -116 0
-100 -117 0
-100 -118 0
-100 -119 0
-100 -120 0
-100 -121 0
-100 -122 0
-105 -114 0
-105 -115 0
-105 -116 0
-105 -117 0
-105 -118 0
-105 -119 0
-105 -120 0
-105 -121 0
-105 -122 0
-114 -115 0
-114 -116 0
-114 -117 0
-114 -118 0
-114 -119 0
-114 -120 0
-114 -121 0
-114 -122 0
-115 -116 0
-115 -117 0
-115 -118 0
-115 -119 0
-115 -120 0
-115 -121 0
-115 -122 0
-116 -117 0
-116 -118 0
-116 -119 0
-116 -120 0
-116 -121 0
-116 -122 0
-117 -118 0
-117 -119 0
-117 -120 0
-117 -121 0
-117 -122 0
-118 -119 0
-118 -120 0
-118 -121 0
-118 -122 0
-119 -120 0
-119 -121 0
-119 -122 0
-120 -121 0
-120 -122 0
-121 -122 0
18 46 55 73 87 100 105 114 115 116 117 118 119 120 121 122 0
-7 -19 0
-7 -31 0
-7 -88 0
-7 -94 0
-7 -123 0
-7 -124 0
-7 -125 0
-7 -126 0
-7 -127 0
-19 -31 0
-19 -88 0
-19 -94 0
-19 -123 0
-19 -124 0
-19 -125 0
-19 -126 0
-19 -127 0
-31 -88 0
-31 -94 0
-31 -123 0
-31 -124 0
-31 -125 0
-31 -126 0
-31 -127 0
-88 -94 0
-88 -123 0
-88 -124 0
-88 -125 0
-88 -126 0
-88 -127 0
-94 -123 0
-94 -124 0
-94 -125 0
-94 -126 0
-94 -127 0
-123 -124 0
-123 -125 0
-123 -126 0
-123 -127 0
-124 -125 0
-124 -126 0
-124 -127 0
-125 -126 0
-125 -127 0
-126 -127 0
7 19 31 88 94 123 124 125 126 127 0
-20 -32 0
-20 -67 0
-20 -123 0
-20 -128 0
-32 -67 0
-32 -123 0
-32 -128 0
-67 -123 0
-67 -128 0
-123 -128 0
20 32 67 123 128 0
-39 -76 0
-39 -80 0
-39 -95 0
-39 -124 0
-39 -129 0
-39 -130 0
-39 -131 0
-76 -80 0
-76 -95 0
-76 -124 0
-76 -129 0
-76 -130 0
-76 -131 0
-80 -95 0
-80 -124 0
-80 -129 0
-80 -130 0
-80 -131 0
-95 -124 0
-95 -129 0
-95 -130 0
-95 -131 0
-124 -129 0
-124 -130 0
-124 -131 0
-129 -130 0
-129 -131 0
-130 -131 0
39 76 80 95 124 129 130 131 0
-8 -81 0
-8 -89 0
-8 -114 0
-8 -125 0
-8 -132 0
-8 -133 0
-81 -89 0
-81 -114 0
-81 -125 0
-81 -132 0
-81 -133 0
-89 -114 0
-89 -125 0
-89 -132 0
-89 -133 0
-114 -125 0
-114 -132 0
-114 -133 0
-125 -132 0
-125 -133 0
-132 -133 0
8 81 89 114 125 132 133 0
-21 -106 0
-21 -129 0
-21 -134 0
-21 -135 0
-21 -136 0
-21 -137 0
-106 -129 0
-106 -134 0
-106 -135 0
-106 -136 0
-106 -137 0
-129 -134 0
-129 -135 0
-129 -136 0
-129 -137 0
-134 -135 0
-134 -136 0
-134 -137 0
-135 -136 0
-135 -137 0
-136 -137 0
21 106 129 134 135 136 137 0
-22 -40 0
-22 -101 0
-22 -107 0
-22 -138 0
-22 -139 0
-22 -140 0
-40 -101 0
-40 -107 0
-40 -138 0
-40 -139 0
-40 -140 0
-101 -107 0
-101 -138 0
-101 -139 0
-101 -140 0
-107 -138 0
-107 -139 0
-107 -140 0
-138 -139 0
-138 -140 0
-139 -140 0
22 40 101 107 138 139 140 0
-9 -68 0
-9 -96 0
-9 -109 0
-9 -115 0
-9 -126 0
-9 -138 0
-9 -141 0
-9 -142 0
-9 -143 0
-9 -144 0
-9 -145 0
-68 -96 0
-68 -109 0
-68 -115 0
-68 -126 0
-68 -138 0
-68 -141 0
-68 -142 0
-68 -143 0
-68 -144 0
-68 -145 0
-96 -109 0
-96 -115 0
-96 -126 0
-96 -138 0
-96 -141 0
-96 -142 0
-96 -143 0
-96 -144 0
-96 -145 0
-109 -115 0
-109 -126 0
-109 -138 0
-109 -141 0
-109 -142 0
-109 -143 0
-109 -144 0
-109 -145 0
-115 -126 0
-115 -138 0
-115 -141 0
-115 -142 0
-115 -143 0
-115 -144 0
-115 -145 0
-126 -138 0
-126 -141 0
-126 -142 0
-126 -143 0
-126 -144 0
-126 -145 0
-138 -141 0
-138 -142 0
-138 -143 0
-138 -144 0
-138 -145 0
-141 -142 0
-141 -143 0
-141 -144 0
-141 -145 0
-142 -143 0
-142 -144 0
-142 -145 0
-143 -144 0
-143 -145 0
-144 -145 0
9 68 96 109 115 126 138 141 142 143 144 145 0
-47 -60 0
-47 -102 0
-47 -116 0
-47 -130 0
-47 -134 0
-47 -146 0
-60 -102 0
-60 -116 0
-60 -130 0
-60 -134 0
-60 -146 0
-102 -116 0
-102 -130 0
-102 -134 0
-102 -146 0
-116 -130 0
-116 -134 0
-116 -146 0
-130 -134 0
-130 -146 0
-134 -146 0
47 60 102 116 130 134 146 0
-27 -33 0
-27 -56 0
-27 -61 0
-27 -117 0
-27 -147 0
-27 -148 0
-33 -56 0
-33 -61 0
-33 -117 0
-33 -147 0
-33 -148 0
-56 -61 0
-56 -117 0
-56 -147 0
-56 -148 0
-61 -117 0
-61 -147 0
-61 -148 0
-117 -147 0
-117 -148 0
-147 -148 0
27 33 56 61 117 147 148 0
-28 -82 0
-28 -141 0
-82 -141 0
28 82 141 0
-41 -48 0
-41 -74 0
-41 -77 0
-41 -103 0
-41 -118 0
-41 -139 0
-41 -149 0
-41 -150 0
-48 -74 0
-48 -77 0
-48 -103 0
-48 -118 0
-48 -139 0
-48 -149 0
-48 -150 0
-74 -77 0
-74 -103 0
-74 -118 0
-74 -139 0
-74 -149 0
-74 -150 0
-77 -103 0
-77 -118 0
-77 -139 0
-77 -149 0
-77 -150 0
-103 -118 0
-103 -139 0
-103 -149 0
-103 -150 0
-118 -139 0
-118 -149 0
-118 -150 0
-139 -149 0
-139 -150 0
-149 -150 0
41 48 74 77 103 118 139 149 150 0
-42 -49 0
-42 -69 0
-42 -131 0
-42 -132 0
-42 -147 0
-42 -151 0
-42 -152 0
-49 -69 0
-49 -131 0
-49 -132 0
-49 -147 0
-49 -151 0
-49 -152 0
-69 -131 0
-69 -132 0
-69 -147 0
-69 -151 0
-69 -152 0
-131 -132 0
-131 -147 0
-131 -151 0
-131 -152 0
-132 -147 0
-132 -151 0
-132 -152 0
-147 -151 0
-147 -152 0
-151 -152 0
42 49 69 131 132 147 151 152 0
-23 -57 0
-23 -97 0
-23 -108 0
-23 -110 0
-23 -128 0
-23 -135 0
-23 -148 0
-23 -153 0
-57 -97 0
-57 -108 0
-57 -110 0
-57 -128 0
-57 -135 0
-57 -148 0
-57 -153 0
-97 -108 0
-97 -110 0
-97 -128 0
-97 -135 0
-97 -148 0
-97 -153 0
-108 -110 0
-108 -128 0
-108 -135 0
-108 -148 0
-108 -153 0
-110 -128 0
-110 -135 0
-110 -148 0
-110 -153 0
-128 -135 0
-128 -148 0
-128 -153 0
-135 -148 0
-135 -153 0
-148 -153 0
23 57 97 108 110 128 135 148 153 0
-10 -34 0
-10 -83 0
-10 -90 0
-10 -119 0
-10 -142 0
-10 -146 0
-10 -154 0
-10 -155 0
-34 -83 0
-34 -90 0
-34 -119 0
-34 -142 0
-34 -146 0
-34 -154 0
-34 -155 0
-83 -90 0
-83 -119 0
-83 -142 0
-83 -146 0
-83 -154 0
-83 -155 0
-90 -119 0
-90 -142 0
-90 -146 0
-90 -154 0
-90 -155 0
-119 -142 0
-119 -146 0
-119 -154 0
-119 -155 0
-142 -146 0
-142 -154 0
-142 -155 0
-146 -154 0
-146 -155 0
-154 -155 0
10 34 83 90 119 142 146 154 155 0
-29 -62 0
-29 -70 0
-29 -98 0
-29 -104 0
-29 -120 0
-29 -127 0
-29 -136 0
-29 -143 0
-29 -156 0
-62 -70 0
-62 -98 0
-62 -104 0
-62 -120 0
-62 -127 0
-62 -136 0
-62 -143 0
-62 -156 0
-70 -98 0
-70 -104 0
-70 -120 0
-70 -127 0
-70 -136 0
-70 -143 0
-70 -156 0
-98 -104 0
-98 -120 0
-98 -127 0
-98 -136 0
-98 -143 0
-98 -156 0
-104 -120 0
-104 -127 0
-104 -136 0
-104 -143 0
-104 -156 0
-120 -127 0
-120 -136 0
-120 -143 0
-120 -156 0
-127 -136 0
-127 -143 0
-127 -156 0
-136 -143 0
-136 -156 0
-143 -156 0
29 62 70 98 104 120 127 136 143 156 0
-43 -71 0
-43 -133 0
-43 -137 0
-43 -144 0
-43 -151 0
-43 -153 0
-43 -154 0
-43 -157 0
-43 -158 0
-71 -133 0
-71 -137 0
-71 -144 0
-71 -151 0
-71 -153 0
-71 -154 0
-71 -157 0
-71 -158 0
-133 -137 0
-133 -144 0
-133 -151 0
-133 -153 0
-133 -154 0
-133 -157 0
-133 -158 0
-137 -144 0
-137 -151 0
-137 -153 0
-137 -154 0
-137 -157 0
-137 -158 0
-144 -151 0
-144 -153 0
-144 -154 0
-144 -157 0
-144 -158 0
-151 -153 0
-151 -154 0
-151 -157 0
-151 -158 0
-153 -154 0
-153 -157 0
-153 -158 0
-154 -157 0
-154 -158 0
-157 -158 0
43 71 133 137 144 151 153 154 157 158 0
-11 -50 0
-11 -72 0
-11 -75 0
-11 -84 0
-11 -145 0
-11 -156 0
-11 -159 0
-50 -72 0
-50 -75 0
-50 -84 0
-50 -145 0
-50 -156 0
-50 -159 0
-72 -75 0
-72 -84 0
-72 -145 0
-72 -156 0
-72 -159 0
-75 -84 0
-75 -145 0
-75 -156 0
-75 -159 0
-84 -145 0
-84 -156 0
-84 -159 0
-145 -156 0
-145 -159 0
-156 -159 0
11 50 72 75 84 145 156 159 0
-12 -35 0
-12 -111 0
-12 -149 0
-12 -152 0
-12 -157 0
-35 -111 0
-35 -149 0
-35 -152 0
-35 -157 0
-111 -149 0
-111 -152 0
-111 -157 0
-149 -152 0
-149 -157 0
-152 -157 0
12 35 111 149 152 157 0
-30 -51 0
-30 -85 0
-30 -91 0
-30 -121 0
-30 -140 0
-30 -160 0
-51 -85 0
-51 -91 0
-51 -121 0
-51 -140 0
-51 -160 0
-85 -91 0
-85 -121 0
-85 -140 0
-85 -160 0
-91 -121 0
-91 -140 0
-91 -160 0
-121 -140 0
-121 -160 0
-140 -160 0
30 51 85 91 121 140 160 0
-44 -63 0
-44 -92 0
-44 -112 0
-44 -155 0
-44 -159 0
-63 -92 0
-63 -112 0
-63 -155 0
-63 -159 0
-92 -112 0
-92 -155 0
-92 -159 0
-112 -155 0
-112 -159 0
-155 -159 0
44 63 92 112 155 159 0
-78 -86 0
-78 -93 0
-78 -113 0
-78 -122 0
-78 -150 0
-78 -158 0
-78 -160 0
-86 -93 0
-86 -113 0
-86 -122 0
-86 -150 0
-86 -158 0
-86 -160 0
-93 -113 0
-93 -122 0
-93 -150 0
-93 -158 0
-93 -160 0
-113 -122 0
-113 -150 0
-113 -158 0
-113 -160 0
-122 -150 0
-122 -158 0
-122 -160 0
-150 -158 0
-150 -160 0
-158 -160 0
78 86 93 113 122 150 158 160 0